
Gurobi 8.0.0 (linux64, Python) logging started Thu May 24 14:58:19 2018


Gurobi 8.0.0 (linux64, Python) logging started Thu May 24 15:02:22 2018

Academic license - for non-commercial use only
Freed default Gurobi environment

Gurobi 8.0.0 (linux64, Python) logging started Thu May 24 15:34:22 2018

Academic license - for non-commercial use only
Freed default Gurobi environment

Gurobi 8.0.0 (linux64, Python) logging started Thu May 24 16:06:49 2018

Academic license - for non-commercial use only
Freed default Gurobi environment

Gurobi 8.0.0 (linux64, Python) logging started Fri May 25 17:28:07 2018

Academic license - for non-commercial use only
Optimize a model with 1 rows, 4 columns and 4 nonzeros
Variable types: 0 continuous, 4 integer (4 binary)
Coefficient statistics:
  Matrix range     [1e+00, 3e+00]
  Objective range  [1e-01, 5e-01]
  Bounds range     [1e+00, 1e+00]
  RHS range        [5e+00, 5e+00]
Found heuristic solution: objective 0.6000000
Presolve removed 1 rows and 4 columns
Presolve time: 0.00s
Presolve: All rows and columns removed

Explored 0 nodes (0 simplex iterations) in 0.00 seconds
Thread count was 1 (of 8 available processors)

Solution count 1: 0.6 

Optimal solution found (tolerance 1.00e-04)
Best objective 6.000000000000e-01, best bound 6.000000000000e-01, gap 0.0000%
Optimize a model with 1 rows, 4 columns and 4 nonzeros
Coefficient statistics:
  Matrix range     [1e+00, 3e+00]
  Objective range  [1e-01, 5e-01]
  Bounds range     [1e+00, 1e+00]
  RHS range        [5e+00, 5e+00]
Presolve removed 1 rows and 4 columns
Presolve time: 0.00s
Presolve: All rows and columns removed
Iteration    Objective       Primal Inf.    Dual Inf.      Time
       0    5.5000000e-01   0.000000e+00   0.000000e+00      0s

Solved in 0 iterations and 0.01 seconds
Optimal objective  5.500000000e-01
Optimize a model with 1 rows, 4 columns and 4 nonzeros
Coefficient statistics:
  Matrix range     [1e+00, 3e+00]
  Objective range  [1e-01, 5e-01]
  Bounds range     [1e+00, 1e+00]
  RHS range        [5e+00, 5e+00]
Presolve removed 1 rows and 4 columns
Presolve time: 0.01s
Presolve: All rows and columns removed
Iteration    Objective       Primal Inf.    Dual Inf.      Time
       0    5.5000000e-01   0.000000e+00   0.000000e+00      0s

Solved in 0 iterations and 0.02 seconds
Optimal objective  5.500000000e-01
Optimize a model with 1 rows, 4 columns and 4 nonzeros
Coefficient statistics:
  Matrix range     [1e+00, 3e+00]
  Objective range  [1e-01, 5e-01]
  Bounds range     [1e+00, 1e+00]
  RHS range        [5e+00, 5e+00]
Presolve removed 1 rows and 4 columns
Presolve time: 0.01s
Presolve: All rows and columns removed
Iteration    Objective       Primal Inf.    Dual Inf.      Time
       0    5.5000000e-01   0.000000e+00   0.000000e+00      0s

Solved in 0 iterations and 0.02 seconds
Optimal objective  5.500000000e-01
Optimize a model with 1 rows, 4 columns and 4 nonzeros
Coefficient statistics:
  Matrix range     [1e+00, 3e+00]
  Objective range  [1e-01, 5e-01]
  Bounds range     [1e+00, 1e+00]
  RHS range        [5e+00, 5e+00]
Presolve removed 1 rows and 4 columns
Presolve time: 0.01s
Presolve: All rows and columns removed
Iteration    Objective       Primal Inf.    Dual Inf.      Time
       0    5.5000000e-01   0.000000e+00   0.000000e+00      0s

Solved in 0 iterations and 0.01 seconds
Optimal objective  5.500000000e-01
Freed default Gurobi environment

Gurobi 8.0.0 (linux64, Python) logging started Fri May 25 17:31:40 2018

Academic license - for non-commercial use only
Optimize a model with 1 rows, 4 columns and 4 nonzeros
Coefficient statistics:
  Matrix range     [1e+00, 3e+00]
  Objective range  [1e-01, 5e-01]
  Bounds range     [1e+00, 1e+00]
  RHS range        [5e+00, 5e+00]
Presolve removed 1 rows and 4 columns
Presolve time: 0.01s
Presolve: All rows and columns removed
Iteration    Objective       Primal Inf.    Dual Inf.      Time
       0    5.5000000e-01   0.000000e+00   0.000000e+00      0s

Solved in 0 iterations and 0.02 seconds
Optimal objective  5.500000000e-01
Optimize a model with 1 rows, 4 columns and 4 nonzeros
Coefficient statistics:
  Matrix range     [1e+00, 3e+00]
  Objective range  [1e-01, 5e-01]
  Bounds range     [1e+00, 1e+00]
  RHS range        [5e+00, 5e+00]
Presolve removed 1 rows and 4 columns
Presolve time: 0.01s
Presolve: All rows and columns removed
Iteration    Objective       Primal Inf.    Dual Inf.      Time
       0    5.5000000e-01   0.000000e+00   0.000000e+00      0s

Solved in 0 iterations and 0.02 seconds
Optimal objective  5.500000000e-01
Optimize a model with 1 rows, 4 columns and 4 nonzeros
Variable types: 0 continuous, 4 integer (4 binary)
Coefficient statistics:
  Matrix range     [1e+00, 3e+00]
  Objective range  [1e-01, 5e-01]
  Bounds range     [1e+00, 1e+00]
  RHS range        [5e+00, 5e+00]
Presolve removed 1 rows and 4 columns
Presolve time: 0.00s
Presolve: All rows and columns removed

Explored 0 nodes (0 simplex iterations) in 0.01 seconds
Thread count was 1 (of 8 available processors)

Solution count 1: 0.6 

Optimal solution found (tolerance 1.00e-04)
Best objective 6.000000000000e-01, best bound 6.000000000000e-01, gap 0.0000%
Optimize a model with 1 rows, 4 columns and 4 nonzeros
Variable types: 0 continuous, 4 integer (4 binary)
Coefficient statistics:
  Matrix range     [1e+00, 3e+00]
  Objective range  [1e-01, 5e-01]
  Bounds range     [1e+00, 1e+00]
  RHS range        [5e+00, 5e+00]
Found heuristic solution: objective 0.3000000
Presolve removed 1 rows and 4 columns
Presolve time: 0.00s
Presolve: All rows and columns removed

Explored 0 nodes (0 simplex iterations) in 0.01 seconds
Thread count was 1 (of 8 available processors)

Solution count 1: 0.3 

Optimal solution found (tolerance 1.00e-04)
Best objective 3.000000000000e-01, best bound 3.000000000000e-01, gap 0.0000%
Optimize a model with 1 rows, 4 columns and 4 nonzeros
Coefficient statistics:
  Matrix range     [1e+00, 3e+00]
  Objective range  [1e-01, 5e-01]
  Bounds range     [1e+00, 1e+00]
  RHS range        [5e+00, 5e+00]
Presolve removed 1 rows and 4 columns
Presolve time: 0.01s
Presolve: All rows and columns removed
Iteration    Objective       Primal Inf.    Dual Inf.      Time
       0    3.0000000e-01   0.000000e+00   0.000000e+00      0s

Solved in 0 iterations and 0.02 seconds
Optimal objective  3.000000000e-01
Optimize a model with 1 rows, 4 columns and 4 nonzeros
Coefficient statistics:
  Matrix range     [1e+00, 3e+00]
  Objective range  [1e-01, 5e-01]
  Bounds range     [1e+00, 1e+00]
  RHS range        [5e+00, 5e+00]
Presolve removed 1 rows and 4 columns
Presolve time: 0.01s
Presolve: All rows and columns removed
Iteration    Objective       Primal Inf.    Dual Inf.      Time
       0    5.5000000e-01   0.000000e+00   0.000000e+00      0s

Solved in 0 iterations and 0.02 seconds
Optimal objective  5.500000000e-01
Optimize a model with 1 rows, 4 columns and 4 nonzeros
Coefficient statistics:
  Matrix range     [1e+00, 3e+00]
  Objective range  [2e-01, 5e-01]
  Bounds range     [1e+00, 1e+00]
  RHS range        [5e+00, 5e+00]
Presolve removed 1 rows and 4 columns
Presolve time: 0.01s
Presolve: All rows and columns removed
Iteration    Objective       Primal Inf.    Dual Inf.      Time
       0    7.0000000e-01   0.000000e+00   0.000000e+00      0s

Solved in 0 iterations and 0.01 seconds
Optimal objective  7.000000000e-01
Optimize a model with 1 rows, 4 columns and 4 nonzeros
Coefficient statistics:
  Matrix range     [1e+00, 3e+00]
  Objective range  [1e-01, 5e-01]
  Bounds range     [1e+00, 1e+00]
  RHS range        [5e+00, 5e+00]
Presolve removed 1 rows and 4 columns
Presolve time: 0.01s
Presolve: All rows and columns removed
Iteration    Objective       Primal Inf.    Dual Inf.      Time
       0    5.5000000e-01   0.000000e+00   0.000000e+00      0s

Solved in 0 iterations and 0.01 seconds
Optimal objective  5.500000000e-01
Optimize a model with 1 rows, 4 columns and 4 nonzeros
Coefficient statistics:
  Matrix range     [1e+00, 3e+00]
  Objective range  [1e-01, 6e-01]
  Bounds range     [1e+00, 1e+00]
  RHS range        [5e+00, 5e+00]
Presolve removed 1 rows and 4 columns
Presolve time: 0.01s
Presolve: All rows and columns removed
Iteration    Objective       Primal Inf.    Dual Inf.      Time
       0    5.5000000e-01   0.000000e+00   0.000000e+00      0s

Solved in 0 iterations and 0.02 seconds
Optimal objective  5.500000000e-01
Optimize a model with 1 rows, 4 columns and 4 nonzeros
Coefficient statistics:
  Matrix range     [1e+00, 3e+00]
  Objective range  [1e-01, 9e-01]
  Bounds range     [1e+00, 1e+00]
  RHS range        [5e+00, 5e+00]
Presolve removed 1 rows and 4 columns
Presolve time: 0.01s
Presolve: All rows and columns removed
Iteration    Objective       Primal Inf.    Dual Inf.      Time
       0    7.5000000e-01   0.000000e+00   0.000000e+00      0s

Solved in 0 iterations and 0.01 seconds
Optimal objective  7.500000000e-01
Optimize a model with 1 rows, 4 columns and 4 nonzeros
Coefficient statistics:
  Matrix range     [1e+00, 3e+00]
  Objective range  [1e-01, 6e-01]
  Bounds range     [1e+00, 1e+00]
  RHS range        [5e+00, 5e+00]
Presolve removed 1 rows and 4 columns
Presolve time: 0.01s
Presolve: All rows and columns removed
Iteration    Objective       Primal Inf.    Dual Inf.      Time
       0    3.0000000e-01   0.000000e+00   0.000000e+00      0s

Solved in 0 iterations and 0.02 seconds
Optimal objective  3.000000000e-01
Optimize a model with 1 rows, 4 columns and 4 nonzeros
Coefficient statistics:
  Matrix range     [1e+00, 3e+00]
  Objective range  [1e-01, 6e-01]
  Bounds range     [1e+00, 1e+00]
  RHS range        [5e+00, 5e+00]
Presolve removed 1 rows and 4 columns
Presolve time: 0.00s
Presolve: All rows and columns removed
Iteration    Objective       Primal Inf.    Dual Inf.      Time
       0    4.0000000e-01   0.000000e+00   0.000000e+00      0s

Solved in 0 iterations and 0.00 seconds
Optimal objective  4.000000000e-01
Optimize a model with 1 rows, 4 columns and 4 nonzeros
Variable types: 0 continuous, 4 integer (4 binary)
Coefficient statistics:
  Matrix range     [1e+00, 3e+00]
  Objective range  [1e-01, 6e-01]
  Bounds range     [1e+00, 1e+00]
  RHS range        [5e+00, 5e+00]
Found heuristic solution: objective 0.4000000
Presolve removed 1 rows and 4 columns
Presolve time: 0.00s
Presolve: All rows and columns removed

Explored 0 nodes (0 simplex iterations) in 0.02 seconds
Thread count was 1 (of 8 available processors)

Solution count 1: 0.4 

Optimal solution found (tolerance 1.00e-04)
Best objective 4.000000000000e-01, best bound 4.000000000000e-01, gap 0.0000%
Optimize a model with 1 rows, 4 columns and 4 nonzeros
Coefficient statistics:
  Matrix range     [1e+00, 3e+00]
  Objective range  [1e-01, 6e-01]
  Bounds range     [1e+00, 1e+00]
  RHS range        [5e+00, 5e+00]
Presolve removed 1 rows and 4 columns
Presolve time: 0.01s
Presolve: All rows and columns removed
Iteration    Objective       Primal Inf.    Dual Inf.      Time
       0    4.0000000e-01   0.000000e+00   0.000000e+00      0s

Solved in 0 iterations and 0.02 seconds
Optimal objective  4.000000000e-01
Optimize a model with 1 rows, 4 columns and 4 nonzeros
Variable types: 0 continuous, 4 integer (4 binary)
Coefficient statistics:
  Matrix range     [1e+00, 3e+00]
  Objective range  [1e-01, 6e-01]
  Bounds range     [1e+00, 1e+00]
  RHS range        [5e+00, 5e+00]
Found heuristic solution: objective 0.4000000
Presolve removed 1 rows and 4 columns
Presolve time: 0.00s
Presolve: All rows and columns removed

Explored 0 nodes (0 simplex iterations) in 0.02 seconds
Thread count was 1 (of 8 available processors)

Solution count 1: 0.4 

Optimal solution found (tolerance 1.00e-04)
Best objective 4.000000000000e-01, best bound 4.000000000000e-01, gap 0.0000%
Optimize a model with 1 rows, 4 columns and 4 nonzeros
Variable types: 0 continuous, 4 integer (4 binary)
Coefficient statistics:
  Matrix range     [1e+00, 3e+00]
  Objective range  [1e-01, 6e-01]
  Bounds range     [1e+00, 1e+00]
  RHS range        [6e+00, 6e+00]
Found heuristic solution: objective 0.5000000
Presolve removed 1 rows and 4 columns
Presolve time: 0.00s
Presolve: All rows and columns removed

Explored 0 nodes (0 simplex iterations) in 0.01 seconds
Thread count was 1 (of 8 available processors)

Solution count 1: 0.5 

Optimal solution found (tolerance 1.00e-04)
Best objective 5.000000000000e-01, best bound 5.000000000000e-01, gap 0.0000%
Optimize a model with 1 rows, 4 columns and 4 nonzeros
Coefficient statistics:
  Matrix range     [1e+00, 3e+00]
  Objective range  [1e-01, 6e-01]
  Bounds range     [1e+00, 1e+00]
  RHS range        [6e+00, 6e+00]
Presolve removed 1 rows and 4 columns
Presolve time: 0.01s
Presolve: All rows and columns removed
Iteration    Objective       Primal Inf.    Dual Inf.      Time
       0    5.0000000e-01   0.000000e+00   0.000000e+00      0s

Solved in 0 iterations and 0.01 seconds
Optimal objective  5.000000000e-01
Optimize a model with 1 rows, 4 columns and 4 nonzeros
Coefficient statistics:
  Matrix range     [1e+00, 3e+00]
  Objective range  [1e-01, 6e-01]
  Bounds range     [1e+00, 1e+00]
  RHS range        [1e+01, 1e+01]
Presolve removed 0 rows and 3 columns
Presolve time: 0.01s

Solved in 0 iterations and 0.01 seconds
Infeasible model
Optimize a model with 1 rows, 4 columns and 4 nonzeros
Coefficient statistics:
  Matrix range     [1e+00, 3e+00]
  Objective range  [1e-01, 6e-01]
  Bounds range     [1e+00, 1e+00]
  RHS range        [7e+00, 7e+00]
Presolve removed 1 rows and 4 columns
Presolve time: 0.00s
Presolve: All rows and columns removed
Iteration    Objective       Primal Inf.    Dual Inf.      Time
       0    1.1000000e+00   0.000000e+00   0.000000e+00      0s

Solved in 0 iterations and 0.00 seconds
Optimal objective  1.100000000e+00
Optimize a model with 1 rows, 4 columns and 4 nonzeros
Coefficient statistics:
  Matrix range     [1e+00, 3e+00]
  Objective range  [1e-01, 6e-01]
  Bounds range     [1e+00, 1e+00]
  RHS range        [2e+00, 2e+00]
Presolve removed 1 rows and 4 columns
Presolve time: 0.01s
Presolve: All rows and columns removed
Iteration    Objective       Primal Inf.    Dual Inf.      Time
       0    1.0000000e-01   0.000000e+00   0.000000e+00      0s

Solved in 0 iterations and 0.02 seconds
Optimal objective  1.000000000e-01
Optimize a model with 1 rows, 4 columns and 4 nonzeros
Coefficient statistics:
  Matrix range     [1e+00, 3e+00]
  Objective range  [1e-01, 6e-01]
  Bounds range     [1e+00, 1e+00]
  RHS range        [2e+00, 2e+00]
Presolve removed 1 rows and 4 columns
Presolve time: 0.01s
Presolve: All rows and columns removed
Iteration    Objective       Primal Inf.    Dual Inf.      Time
       0    2.0000000e-01   0.000000e+00   0.000000e+00      0s

Solved in 0 iterations and 0.02 seconds
Optimal objective  2.000000000e-01
Optimize a model with 1 rows, 4 columns and 4 nonzeros
Variable types: 0 continuous, 4 integer (4 binary)
Coefficient statistics:
  Matrix range     [1e+00, 3e+00]
  Objective range  [1e-01, 6e-01]
  Bounds range     [1e+00, 1e+00]
  RHS range        [2e+00, 2e+00]
Presolve removed 1 rows and 4 columns
Presolve time: 0.00s
Presolve: All rows and columns removed

Explored 0 nodes (0 simplex iterations) in 0.02 seconds
Thread count was 1 (of 8 available processors)

Solution count 1: 0.5 

Optimal solution found (tolerance 1.00e-04)
Best objective 5.000000000000e-01, best bound 5.000000000000e-01, gap 0.0000%
Optimize a model with 1 rows, 4 columns and 4 nonzeros
Coefficient statistics:
  Matrix range     [1e+00, 3e+00]
  Objective range  [1e-01, 6e-01]
  Bounds range     [1e+00, 1e+00]
  RHS range        [2e+00, 2e+00]
Presolve removed 1 rows and 4 columns
Presolve time: 0.00s
Presolve: All rows and columns removed
Iteration    Objective       Primal Inf.    Dual Inf.      Time
       0    2.0000000e-01   0.000000e+00   0.000000e+00      0s

Solved in 0 iterations and 0.00 seconds
Optimal objective  2.000000000e-01
Optimize a model with 1 rows, 4 columns and 4 nonzeros
Variable types: 0 continuous, 4 integer (4 binary)
Coefficient statistics:
  Matrix range     [1e+00, 3e+00]
  Objective range  [1e-01, 6e-01]
  Bounds range     [1e+00, 1e+00]
  RHS range        [2e+00, 2e+00]
Presolve removed 1 rows and 4 columns
Presolve time: 0.00s
Presolve: All rows and columns removed

Explored 0 nodes (0 simplex iterations) in 0.02 seconds
Thread count was 1 (of 8 available processors)

Solution count 1: 0.5 

Optimal solution found (tolerance 1.00e-04)
Best objective 5.000000000000e-01, best bound 5.000000000000e-01, gap 0.0000%
Optimize a model with 1 rows, 4 columns and 4 nonzeros
Coefficient statistics:
  Matrix range     [1e+00, 3e+00]
  Objective range  [1e-01, 6e-01]
  Bounds range     [1e+00, 1e+00]
  RHS range        [2e+00, 2e+00]
Presolve removed 1 rows and 4 columns
Presolve time: 0.01s
Presolve: All rows and columns removed
Iteration    Objective       Primal Inf.    Dual Inf.      Time
       0    2.0000000e-01   0.000000e+00   0.000000e+00      0s

Solved in 0 iterations and 0.01 seconds
Optimal objective  2.000000000e-01
Optimize a model with 1 rows, 4 columns and 4 nonzeros
Coefficient statistics:
  Matrix range     [1e+00, 3e+00]
  Objective range  [1e-01, 6e-01]
  Bounds range     [1e+00, 1e+00]
  RHS range        [3e+00, 3e+00]
Presolve removed 1 rows and 4 columns
Presolve time: 0.00s
Presolve: All rows and columns removed
Iteration    Objective       Primal Inf.    Dual Inf.      Time
       0    3.0000000e-01   0.000000e+00   0.000000e+00      0s

Solved in 0 iterations and 0.00 seconds
Optimal objective  3.000000000e-01
Optimize a model with 1 rows, 4 columns and 4 nonzeros
Coefficient statistics:
  Matrix range     [1e+00, 3e+00]
  Objective range  [1e-01, 6e-01]
  Bounds range     [1e+00, 1e+00]
  RHS range        [3e+00, 3e+00]
Presolve removed 1 rows and 4 columns
Presolve time: 0.00s
Presolve: All rows and columns removed
Iteration    Objective       Primal Inf.    Dual Inf.      Time
       0    3.0000000e-01   0.000000e+00   0.000000e+00      0s

Solved in 0 iterations and 0.01 seconds
Optimal objective  3.000000000e-01
Optimize a model with 1 rows, 4 columns and 4 nonzeros
Coefficient statistics:
  Matrix range     [1e+00, 3e+00]
  Objective range  [1e-01, 6e-01]
  Bounds range     [1e+00, 1e+00]
  RHS range        [4e+00, 4e+00]
Presolve removed 1 rows and 4 columns
Presolve time: 0.00s
Presolve: All rows and columns removed
Iteration    Objective       Primal Inf.    Dual Inf.      Time
       0    4.0000000e-01   0.000000e+00   0.000000e+00      0s

Solved in 0 iterations and 0.00 seconds
Optimal objective  4.000000000e-01
Optimize a model with 1 rows, 4 columns and 4 nonzeros
Coefficient statistics:
  Matrix range     [1e+00, 3e+00]
  Objective range  [1e-01, 5e-01]
  Bounds range     [1e+00, 1e+00]
  RHS range        [4e+00, 4e+00]
Presolve removed 1 rows and 4 columns
Presolve time: 0.00s
Presolve: All rows and columns removed
Iteration    Objective       Primal Inf.    Dual Inf.      Time
       0    4.0000000e-01   0.000000e+00   0.000000e+00      0s

Solved in 0 iterations and 0.00 seconds
Optimal objective  4.000000000e-01
Optimize a model with 1 rows, 4 columns and 4 nonzeros
Variable types: 0 continuous, 4 integer (4 binary)
Coefficient statistics:
  Matrix range     [1e+00, 3e+00]
  Objective range  [1e-01, 5e-01]
  Bounds range     [1e+00, 1e+00]
  RHS range        [4e+00, 4e+00]
Found heuristic solution: objective 0.4000000
Presolve removed 1 rows and 4 columns
Presolve time: 0.00s
Presolve: All rows and columns removed

Explored 0 nodes (0 simplex iterations) in 0.01 seconds
Thread count was 1 (of 8 available processors)

Solution count 1: 0.4 

Optimal solution found (tolerance 1.00e-04)
Best objective 4.000000000000e-01, best bound 4.000000000000e-01, gap 0.0000%
Optimize a model with 1 rows, 4 columns and 4 nonzeros
Variable types: 0 continuous, 4 integer (4 binary)
Coefficient statistics:
  Matrix range     [1e+00, 3e+00]
  Objective range  [1e-01, 5e-01]
  Bounds range     [1e+00, 1e+00]
  RHS range        [4e+00, 4e+00]
Presolve removed 1 rows and 4 columns
Presolve time: 0.00s
Presolve: All rows and columns removed

Explored 0 nodes (0 simplex iterations) in 0.01 seconds
Thread count was 1 (of 8 available processors)

Solution count 1: 0.4 

Optimal solution found (tolerance 1.00e-04)
Best objective 4.000000000000e-01, best bound 4.000000000000e-01, gap 0.0000%
